Traveling Salesman Problem/TSP_generados/Aleatorio1621103277_7.tsp
NAME: Aleatorio1621103277_7.tsp
COMMENT: Randomly generated scenario
TYPE: TSP
DIMENSION: 7
EDGE_WEIGHT_TYPE: ATT
NODE_COORD_SECTION
1 35.28 5.71
2 36.33 31.87
3 47.02 16.99
4 13.93 4.1
5 3.46 10.05
6 12.78 19.61
7 9.63 9.51
