Traveling Salesman Problem/TSP_generados/Aleatorio1621103277_7.opt.tour
NAME: Aleatorio1621103277_7.opt.tour
COMMENT: Optimal solution for Aleatorio1621103277_7 (109.01903172566468)
TYPE: TOUR
DIMENSION: 7
TOUR_SECTION
1 3 2 6 5 7 4
-1
EOF
